o-MAPbBr3                               
   1.00000000000000     
     7.8365580877984335   -0.0000001426445201   -0.0000000584386582
    -0.0000002179788923   11.8768690481046271   -0.0000008614570542
    -0.0000000600903028   -0.0000005503873163    8.6897570915863938
   C    N    H    Pb   Br
     4     4    24     4    12
Direct
  0.0253066338522245  0.2499999879052694  0.9397826498042718
  0.9746933929756949  0.7499999998747384  0.0602172447757283
  0.4746934392735795  0.7499999820874663  0.4397826903306594
  0.5253065822193506  0.2500000044539377  0.5602172140907484
  0.9600944491489969  0.2499999788788614  0.0995630586151535
  0.0399055551296570  0.7499999952725958  0.9004368283454269
  0.5399056387846102  0.7499999911416566  0.5995630893444783
  0.4600943785689893  0.2499999902166863  0.4004368196445753
  0.0040379840422702  0.3210518576677401  0.1584634870554638
  0.9959620083253569  0.6789481145337319  0.8415364063952140
  0.4959621061526818  0.6789481257767136  0.6584634701389618
  0.5040379162641742  0.3210518573341687  0.3415364324157508
  0.9959620493705827  0.8210518599745242  0.8415364515939459
  0.0040379646288002  0.1789481218301248  0.1584634415725219
  0.5040378733468742  0.1789481217045932  0.3415363832047547
  0.4959621397187277  0.8210518711328021  0.6584635086535897
  0.8268763667104366  0.2499999718812873  0.1002094944928089
  0.1731236337252042  0.7500000096814219  0.8997903756864716
  0.6731237223465314  0.7500000020274413  0.6002094978666221
  0.3268763004032422  0.2499999779347490  0.3997904009527957
  0.9786191419402996  0.3258484550321583  0.8808073744442666
  0.0213808776495767  0.6741515326180689  0.1191925273078951
  0.5213809078228522  0.6741515109510630  0.3808073399258092
  0.4786191276164615  0.3258484783375550  0.6191925688083515
  0.0213809047507922  0.8258484794138496  0.1191925871880244
  0.9786191324122555  0.1741515101806144  0.8808073028631114
  0.4786190795148215  0.1741515295550613  0.6191925011888557
  0.5213809483777823  0.8258484547139631  0.3808074067430951
  0.1655854736359359  0.2500000076329272  0.9429350897155899
  0.8344145522487381  0.7499999781844053  0.0570648067703914
  0.3344146043839942  0.7499999789225384  0.4429351659873006
  0.6655854218550274  0.2500000106130358  0.5570647345557305
  0.9999999348902833  0.0000000252049475  0.5000004506706759
  0.5000000330732917  0.9999999560665103  0.0000004123811834
  0.0000001332605990  0.4999999391722483  0.5000002555317522
  0.4999998902952001  0.5000001329970587  0.0000003541594893
  0.0425394966996819  0.2500000673290046  0.5141298122527758
  0.9574605937100813  0.7500001166410968  0.4858701798010969
  0.4574605458097523  0.7499999417596044  0.0141300396234030
  0.5425393623820725  0.2500000182260891  0.9858701862446324
  0.3004793113350672  0.9719310821445930  0.7085361880993304
  0.6995207036352369  0.0280689086175059  0.2914638487446126
  0.1995205732694814  0.0280688505800484  0.2085361294095804
  0.8004793495149300  0.9719312118326044  0.7914638076484550
  0.6995207585747281  0.4719310845899827  0.2914638340928377
  0.3004791472494475  0.5280688629046892  0.7085360724763134
  0.8004792364204505  0.5280688368770754  0.7914639760856161
  0.1995205826830855  0.4719311915912954  0.2085360952998627
 
  0.00000000E+00  0.00000000E+00  0.00000000E+00
  0.00000000E+00  0.00000000E+00  0.00000000E+00
  0.00000000E+00  0.00000000E+00  0.00000000E+00
  0.00000000E+00  0.00000000E+00  0.00000000E+00
  0.00000000E+00  0.00000000E+00  0.00000000E+00
  0.00000000E+00  0.00000000E+00  0.00000000E+00
  0.00000000E+00  0.00000000E+00  0.00000000E+00
  0.00000000E+00  0.00000000E+00  0.00000000E+00
  0.00000000E+00  0.00000000E+00  0.00000000E+00
  0.00000000E+00  0.00000000E+00  0.00000000E+00
  0.00000000E+00  0.00000000E+00  0.00000000E+00
  0.00000000E+00  0.00000000E+00  0.00000000E+00
  0.00000000E+00  0.00000000E+00  0.00000000E+00
  0.00000000E+00  0.00000000E+00  0.00000000E+00
  0.00000000E+00  0.00000000E+00  0.00000000E+00
  0.00000000E+00  0.00000000E+00  0.00000000E+00
  0.00000000E+00  0.00000000E+00  0.00000000E+00
  0.00000000E+00  0.00000000E+00  0.00000000E+00
  0.00000000E+00  0.00000000E+00  0.00000000E+00
  0.00000000E+00  0.00000000E+00  0.00000000E+00
  0.00000000E+00  0.00000000E+00  0.00000000E+00
  0.00000000E+00  0.00000000E+00  0.00000000E+00
  0.00000000E+00  0.00000000E+00  0.00000000E+00
  0.00000000E+00  0.00000000E+00  0.00000000E+00
  0.00000000E+00  0.00000000E+00  0.00000000E+00
  0.00000000E+00  0.00000000E+00  0.00000000E+00
  0.00000000E+00  0.00000000E+00  0.00000000E+00
  0.00000000E+00  0.00000000E+00  0.00000000E+00
  0.00000000E+00  0.00000000E+00  0.00000000E+00
  0.00000000E+00  0.00000000E+00  0.00000000E+00
  0.00000000E+00  0.00000000E+00  0.00000000E+00
  0.00000000E+00  0.00000000E+00  0.00000000E+00
  0.00000000E+00  0.00000000E+00  0.00000000E+00
  0.00000000E+00  0.00000000E+00  0.00000000E+00
  0.00000000E+00  0.00000000E+00  0.00000000E+00
  0.00000000E+00  0.00000000E+00  0.00000000E+00
  0.00000000E+00  0.00000000E+00  0.00000000E+00
  0.00000000E+00  0.00000000E+00  0.00000000E+00
  0.00000000E+00  0.00000000E+00  0.00000000E+00
  0.00000000E+00  0.00000000E+00  0.00000000E+00
  0.00000000E+00  0.00000000E+00  0.00000000E+00
  0.00000000E+00  0.00000000E+00  0.00000000E+00
  0.00000000E+00  0.00000000E+00  0.00000000E+00
  0.00000000E+00  0.00000000E+00  0.00000000E+00
  0.00000000E+00  0.00000000E+00  0.00000000E+00
  0.00000000E+00  0.00000000E+00  0.00000000E+00
  0.00000000E+00  0.00000000E+00  0.00000000E+00
  0.00000000E+00  0.00000000E+00  0.00000000E+00
