MA-Pb-Br                                 
1.0
       12.0139684677         0.0000000000         0.0000000000
        0.1341647064         8.3001490344         0.0000000000
        0.1341851247         0.0438626193         8.3000652359
    C    N    H   Pb   Br
    4    4   24    4   12
Direct
     0.480981141         0.953149796         0.953206420
     0.480981141         0.453149796         0.453206420
     0.980981112         0.453149796         0.453206420
     0.980981112         0.953149796         0.953206420
     0.026814559         0.568682134         0.568742216
     0.026814559         0.068682134         0.068742216
     0.526814580         0.068682134         0.068742216
     0.526814580         0.568682134         0.568742216
     0.389627934         0.960253358         0.960314035
     0.389627934         0.460253358         0.460314035
     0.889627934         0.460253358         0.460314035
     0.889627934         0.960253358         0.960314035
     0.009877271         0.485199153         0.331030607
     0.009877271         0.985199153         0.831030607
     0.509877264         0.985199153         0.831030607
     0.509877264         0.485199153         0.331030607
     0.009878606         0.830976009         0.985254526
     0.009878606         0.330976009         0.485254526
     0.509878635         0.330976009         0.485254526
     0.509878635         0.830976009         0.985254526
     0.001667796         0.187064320         0.042503096
     0.001667796         0.687064290         0.542503119
     0.501667798         0.687064290         0.542503119
     0.501667798         0.187064320         0.042503096
     0.001668400         0.542443037         0.687125802
     0.001668400         0.042443037         0.187125802
     0.501668394         0.042443037         0.187125802
     0.501668394         0.542443037         0.687125802
     0.113506772         0.568634629         0.568690836
     0.113506772         0.068634629         0.068690836
     0.613506794         0.068634629         0.068690836
     0.613506794         0.568634629         0.568690836
     0.243313789         0.483743846         0.983802080
     0.243313789         0.983743846         0.483802080
     0.743313789         0.983743846         0.483802080
     0.743313789         0.483743846         0.983802080
     0.490920395         0.467161655         0.967220902
     0.490920395         0.967161655         0.467220902
     0.990920424         0.967161655         0.467220902
     0.990920424         0.467161655         0.967220902
     0.264823228         0.710860670         0.710919023
     0.264823228         0.210860670         0.210919023
     0.764823198         0.210860670         0.210919023
     0.764823198         0.710860670         0.710919023
     0.214813992         0.730473340         0.230529919
     0.214813992         0.230473340         0.730529904
     0.714814007         0.230473340         0.730529904
     0.714814007         0.730473340         0.230529919
