 C  N  H Pb Br                          
   1.00000000000000     
     8.2145587071737562    0.0079573206956300    0.0414137236997698
     0.0082764172846152    8.2218139191069017    0.0370281179909221
     0.0530639762572747    0.0509775582269602   12.0755107170872726
   C    N    H    Pb   Br
     4     4    24     4    12
Direct
  0.7812251189374351  0.2444074395823677  0.2524703562423198
  0.2830250517916753  0.7995612053959817  0.2535210537522090
  0.7995189020546007  0.2834347951420568  0.7534322755786818
  0.2441873478010450  0.7813104128903348  0.7527090095290419
  0.6747139854496069  0.3604125402648108  0.1932102828724354
  0.1737071980162455  0.6871400188400898  0.1952241911359636
  0.6878004744389656  0.1734046301481911  0.6951340019182410
  0.3598640979780114  0.6743649330766530  0.6933980284761390
  0.4088273494835732  0.7783393175637272  0.2253167510372691
  0.2727485555015008  0.7767410429423052  0.3430782591208867
  0.2470545275871174  0.9253265493363969  0.2339454552683122
  0.2037987973146116  0.5653024972390810  0.2104790180354499
  0.1790328232827534  0.7059727513328937  0.1100846977167365
  0.0518325131724211  0.7037934761313522  0.2186891211688291
  0.6876949884017804  0.3492044983770626  0.1079968756028791
  0.7021370036715737  0.4810898449541838  0.2127494551844435
  0.5515437422191027  0.3408441285208070  0.2120934340755340
  0.9084458133708750  0.2681309431482362  0.2284488905808146
  0.7479022045693213  0.1199366626187484  0.2293705294460864
  0.7648675497580442  0.2608111456194138  0.3420708607316598
  0.7038561535782932  0.0519907437679095  0.7195630724041493
  0.7082506882217885  0.1771502261762237  0.6101049260681393
  0.5656868779751036  0.2038928945919452  0.7093318097808208
  0.9256495341317077  0.2469319112374748  0.7350915097986288
  0.7751539705520401  0.2747717121749105  0.8428867697200673
  0.7790180561897202  0.4086593218644552  0.7240849360132557
  0.4807861266672617  0.7020948868276378  0.7122831238209102
  0.3477759275185619  0.6863068183259315  0.6081896523796146
  0.3405775025365898  0.5514707949675142  0.7128907971356639
  0.2675860386038735  0.9081751426410776  0.7279683285017455
  0.2614453180613054  0.7659793243145145  0.8422923753205964
  0.1194125332880702  0.7476190754021417  0.7303882398987085
  0.2572457114103770  0.2662448838255003  0.9852699084870338
  0.2664412309975859  0.2572953604314350  0.4852860459016668
  0.7793097476832642  0.7575763133259628  0.4883617470943662
  0.7574745503318141  0.7794754934452399  0.9883581755723867
  0.4578263836754886  0.5720878407611139  0.9940640956113782
  0.0631625061670036  0.9660561843519133  0.9998467410484650
  0.9621839387650439  0.4797635459484866  0.9995153886079962
  0.5695329574391579  0.0877187415703844  0.9911490025298519
  0.0876833495740215  0.5694046001506621  0.4912447167786382
  0.4794988573012660  0.9621785435099213  0.4997395277874688
  0.5721430231431128  0.4580252047399469  0.4941032204304676
  0.9659120934697043  0.0632183663887602  0.4994931084230387
  0.2744653756658479  0.2889886599761553  0.2355820838385014
  0.2891701915557618  0.2743302914698162  0.7355718896311600
  0.7527792913469185  0.7720634852879513  0.7409629176765478
  0.7720426833487011  0.7529948733999774  0.2409526052647593
 
  0.00000000E+00  0.00000000E+00  0.00000000E+00
  0.00000000E+00  0.00000000E+00  0.00000000E+00
  0.00000000E+00  0.00000000E+00  0.00000000E+00
  0.00000000E+00  0.00000000E+00  0.00000000E+00
  0.00000000E+00  0.00000000E+00  0.00000000E+00
  0.00000000E+00  0.00000000E+00  0.00000000E+00
  0.00000000E+00  0.00000000E+00  0.00000000E+00
  0.00000000E+00  0.00000000E+00  0.00000000E+00
  0.00000000E+00  0.00000000E+00  0.00000000E+00
  0.00000000E+00  0.00000000E+00  0.00000000E+00
  0.00000000E+00  0.00000000E+00  0.00000000E+00
  0.00000000E+00  0.00000000E+00  0.00000000E+00
  0.00000000E+00  0.00000000E+00  0.00000000E+00
  0.00000000E+00  0.00000000E+00  0.00000000E+00
  0.00000000E+00  0.00000000E+00  0.00000000E+00
  0.00000000E+00  0.00000000E+00  0.00000000E+00
  0.00000000E+00  0.00000000E+00  0.00000000E+00
  0.00000000E+00  0.00000000E+00  0.00000000E+00
  0.00000000E+00  0.00000000E+00  0.00000000E+00
  0.00000000E+00  0.00000000E+00  0.00000000E+00
  0.00000000E+00  0.00000000E+00  0.00000000E+00
  0.00000000E+00  0.00000000E+00  0.00000000E+00
  0.00000000E+00  0.00000000E+00  0.00000000E+00
  0.00000000E+00  0.00000000E+00  0.00000000E+00
  0.00000000E+00  0.00000000E+00  0.00000000E+00
  0.00000000E+00  0.00000000E+00  0.00000000E+00
  0.00000000E+00  0.00000000E+00  0.00000000E+00
  0.00000000E+00  0.00000000E+00  0.00000000E+00
  0.00000000E+00  0.00000000E+00  0.00000000E+00
  0.00000000E+00  0.00000000E+00  0.00000000E+00
  0.00000000E+00  0.00000000E+00  0.00000000E+00
  0.00000000E+00  0.00000000E+00  0.00000000E+00
  0.00000000E+00  0.00000000E+00  0.00000000E+00
  0.00000000E+00  0.00000000E+00  0.00000000E+00
  0.00000000E+00  0.00000000E+00  0.00000000E+00
  0.00000000E+00  0.00000000E+00  0.00000000E+00
  0.00000000E+00  0.00000000E+00  0.00000000E+00
  0.00000000E+00  0.00000000E+00  0.00000000E+00
  0.00000000E+00  0.00000000E+00  0.00000000E+00
  0.00000000E+00  0.00000000E+00  0.00000000E+00
  0.00000000E+00  0.00000000E+00  0.00000000E+00
  0.00000000E+00  0.00000000E+00  0.00000000E+00
  0.00000000E+00  0.00000000E+00  0.00000000E+00
  0.00000000E+00  0.00000000E+00  0.00000000E+00
  0.00000000E+00  0.00000000E+00  0.00000000E+00
  0.00000000E+00  0.00000000E+00  0.00000000E+00
  0.00000000E+00  0.00000000E+00  0.00000000E+00
  0.00000000E+00  0.00000000E+00  0.00000000E+00
